WARNING: for repeatability, setting FPU to use double precision
============================[ Problem Statistics ]=============================
|                                                                             |
|  Number of variables:           270                                         |
|  Number of clauses:            1057                                         |
|  Parse time:                   0.00 s                                       |
|                                                                             |
============================[ Search Statistics ]==============================
| Conflicts |          ORIGINAL         |          LEARNT          | Progress |
|           |    Vars  Clauses Literals |    Limit  Clauses Lit/Cl |          |
===============================================================================
===============================================================================
restarts              : 1
conflicts             : 33             (inf /sec)
decisions             : 39             (0.00 % random) (inf /sec)
propagations          : 1448           (inf /sec)
conflict literals     : 149            (29.05 % deleted)
Memory used           : 19.00 MB
CPU time              : 0 s

UNSATISFIABLE
